nodes = 305;
edges = 655;
starts = [1, 1, 2, 3, 3, 3, 4, 4, 5, 5, 5, 6, 6, 6, 7, 8, 9, 10, 11, 11, 12, 12, 12, 13, 14, 15, 15, 15, 16, 17, 17, 17, 18, 18, 18, 19, 19, 19, 20, 21, 21, 21, 22, 22, 22, 23, 23, 23, 24, 24, 25, 25, 25, 26, 26, 26, 27, 27, 27, 28, 29, 30, 30, 30, 31, 31, 32, 32, 32, 33, 33, 33, 34, 34, 34, 35, 35, 36, 37, 37, 37, 38, 39, 39, 39, 40, 40, 41, 42, 43, 43, 43, 44, 44, 45, 45, 45, 46, 46, 46, 47, 47, 47, 48, 48, 49, 49, 50, 50, 50, 51, 52, 52, 52, 53, 53, 53, 54, 54, 55, 56, 56, 57, 57, 57, 58, 58, 58, 59, 59, 60, 60, 60, 61, 62, 62, 62, 63, 63, 63, 64, 64, 64, 65, 65, 65, 66, 66, 66, 67, 67, 67, 68, 68, 68, 69, 69, 70, 70, 70, 71, 72, 72, 73, 73, 73, 73, 74, 74, 74, 75, 75, 76, 76, 76, 77, 77, 78, 79, 79, 80, 81, 81, 82, 83, 83, 84, 85, 85, 86, 86, 87, 88, 88, 88, 89, 90, 91, 92, 92, 92, 93, 94, 94, 94, 95, 96, 96, 96, 97, 97, 98, 99, 100, 100, 101, 101, 102, 102, 102, 102, 103, 104, 104, 104, 104, 105, 105, 106, 106, 106, 107, 107, 107, 108, 109, 110, 110, 111, 112, 112, 113, 113, 113, 114, 115, 115, 116, 116, 117, 118, 119, 119, 119, 120, 120, 121, 121, 122, 122, 122, 123, 123, 123, 123, 124, 124, 125, 125, 126, 126, 126, 127, 128, 128, 129, 129, 129, 130, 130, 130, 131, 132, 132, 133, 133, 134, 134, 134, 134, 135, 135, 135, 136, 136, 137, 137, 137, 138, 138, 138, 139, 139, 139, 140, 140, 140, 140, 141, 142, 142, 143, 143, 144, 144, 145, 145, 146, 146, 146, 147, 147, 147, 148, 148, 149, 149, 149, 150, 150, 151, 152, 152, 152, 153, 154, 155, 155, 155, 156, 156, 156, 157, 157, 158, 158, 158, 159, 159, 159, 160, 160, 160, 161, 161, 161, 162, 162, 163, 164, 164, 165, 166, 167, 167, 168, 169, 169, 169, 170, 170, 171, 171, 171, 172, 172, 173, 173, 174, 175, 175, 175, 176, 177, 177, 178, 179, 179, 179, 180, 180, 181, 181, 181, 182, 182, 182, 183, 183, 183, 184, 184, 184, 185, 186, 186, 186, 187, 188, 188, 189, 190, 190, 191, 192, 192, 192, 193, 193, 193, 194, 194, 194, 195, 195, 196, 196, 197, 197, 198, 199, 199, 199, 200, 200, 200, 201, 201, 202, 202, 203, 203, 203, 204, 204, 204, 205, 205, 205, 206, 207, 207, 208, 209, 209, 209, 209, 210, 211, 212, 212, 212, 213, 213, 214, 215, 215, 216, 216, 217, 217, 218, 218, 218, 219, 219, 220, 220, 221, 222, 222, 222, 223, 224, 225, 226, 226, 227, 227, 227, 228, 228, 228, 229, 229, 230, 230, 230, 231, 231, 232, 233, 233, 234, 234, 235, 236, 237, 237, 238, 238, 239, 240, 240, 240, 241, 242, 242, 243, 243, 244, 245, 245, 246, 247, 247, 247, 248, 249, 249, 249, 250, 251, 251, 251, 252, 252, 253, 253, 253, 254, 255, 255, 255, 255, 256, 256, 257, 257, 258, 258, 258, 259, 259, 259, 260, 260, 261, 261, 262, 263, 263, 264, 264, 265, 266, 266, 266, 267, 268, 268, 269, 270, 270, 271, 271, 271, 271, 272, 272, 273, 273, 274, 274, 275, 275, 275, 275, 276, 277, 277, 278, 278, 279, 280, 280, 281, 282, 282, 282, 283, 283, 283, 284, 284, 284, 285, 285, 286, 287, 287, 287, 288, 288, 288, 289, 289, 289, 290, 290, 291, 292, 292, 293, 293, 293, 294, 294, 294, 295, 295, 295, 296, 296, 296, 297, 297, 298, 298, 298, 299, 299, 299, 300, 300, 301, 302, 302, 303, 303, 304, 304, 304, 305, 305];
ends = [121, 160, 95, 220, 275, 290, 163, 220, 34, 149, 181, 26, 32, 294, 283, 86, 49, 246, 144, 185, 88, 182, 194, 179, 171, 112, 140, 298, 17, 16, 39, 280, 19, 96, 205, 18, 59, 199, 146, 23, 45, 288, 45, 138, 288, 21, 186, 288, 216, 287, 47, 203, 298, 6, 209, 294, 32, 266, 289, 165, 218, 73, 227, 274, 44, 272, 6, 27, 266, 53, 275, 292, 5, 56, 268, 143, 195, 68, 54, 219, 295, 103, 17, 222, 224, 112, 283, 290, 200, 125, 179, 225, 31, 201, 21, 22, 184, 72, 127, 218, 25, 126, 296, 24, 167, 79, 187, 52, 67, 68, 209, 50, 77, 161, 33, 121, 160, 48, 91, 139, 34, 289, 58, 107, 303, 57, 120, 253, 19, 97, 70, 209, 284, 300, 66, 81, 253, 71, 277, 299, 65, 102, 271, 64, 271, 293, 62, 67, 226, 50, 66, 243, 36, 50, 156, 223, 282, 60, 102, 284, 63, 41, 85, 30, 107, 159, 227, 106, 152, 230, 128, 269, 194, 247, 251, 77, 52, 213, 48, 91, 257, 81, 62, 188, 164, 282, 287, 41, 164, 197, 276, 10, 12, 147, 182, 178, 270, 9, 94, 102, 135, 174, 92, 119, 129, 180, 18, 119, 129, 59, 123, 267, 93, 137, 279, 216, 287, 64, 70, 92, 193, 89, 107, 123, 227, 274, 176, 254, 74, 113, 152, 57, 73, 104, 153, 159, 54, 219, 35, 15, 40, 106, 118, 152, 173, 125, 179, 116, 253, 156, 113, 94, 96, 122, 120, 58, 1, 53, 119, 123, 205, 97, 104, 122, 199, 233, 278, 43, 108, 47, 258, 304, 46, 51, 162, 94, 96, 135, 140, 255, 259, 141, 256, 273, 137, 210, 169, 219, 249, 255, 92, 129, 193, 8, 131, 100, 133, 237, 22, 239, 240, 55, 78, 261, 15, 130, 212, 283, 10, 4, 278, 44, 194, 185, 300, 230, 259, 20, 150, 264, 88, 182, 230, 200, 208, 5, 181, 192, 146, 217, 281, 74, 106, 113, 105, 155, 154, 156, 286, 68, 117, 155, 145, 241, 183, 192, 204, 73, 109, 291, 1, 53, 275, 52, 285, 302, 132, 305, 244, 85, 282, 176, 190, 75, 110, 240, 134, 295, 296, 35, 80, 14, 172, 175, 115, 171, 111, 257, 2, 146, 191, 217, 11, 166, 265, 215, 13, 115, 171, 99, 211, 5, 149, 266, 12, 88, 147, 158, 204, 268, 45, 186, 295, 177, 21, 23, 184, 38, 114, 245, 261, 28, 221, 175, 149, 158, 204, 102, 135, 284, 12, 76, 195, 170, 260, 197, 234, 78, 276, 151, 19, 123, 205, 42, 148, 222, 31, 202, 228, 272, 25, 212, 258, 158, 183, 192, 18, 122, 199, 207, 206, 299, 148, 26, 51, 60, 162, 133, 231, 140, 203, 298, 196, 214, 196, 79, 187, 101, 263, 172, 175, 29, 46, 248, 37, 134, 3, 163, 28, 39, 200, 299, 69, 39, 43, 226, 66, 30, 73, 104, 202, 272, 275, 166, 265, 74, 145, 147, 137, 279, 131, 46, 72, 141, 232, 273, 240, 277, 297, 100, 237, 138, 138, 168, 236, 110, 43, 108, 243, 67, 114, 98, 142, 198, 76, 250, 251, 218, 134, 296, 304, 247, 76, 247, 262, 99, 211, 58, 62, 116, 242, 130, 134, 258, 304, 170, 260, 82, 161, 126, 203, 255, 130, 145, 241, 132, 305, 139, 189, 251, 150, 264, 101, 263, 252, 27, 32, 181, 87, 34, 183, 128, 83, 90, 64, 65, 293, 294, 31, 228, 235, 256, 30, 104, 3, 33, 160, 228, 261, 63, 297, 4, 124, 229, 17, 301, 136, 69, 83, 270, 7, 40, 140, 60, 70, 193, 82, 161, 155, 24, 84, 167, 22, 23, 239, 27, 56, 293, 124, 233, 159, 33, 83, 65, 271, 289, 6, 26, 271, 37, 169, 184, 47, 169, 249, 285, 302, 15, 25, 212, 63, 207, 222, 61, 144, 280, 238, 303, 57, 238, 126, 249, 255, 75, 157];
weights = [1, 1, 1, 1, 1, 1, 1, 1, 1, 1, 1, 1, 1, 1, 1, 1, 1, 1, 1, 1, 1, 1, 1, 1, 1, 1, 1, 1, 1, 1, 1, 1, 1, 1, 1, 1, 1, 1, 1, 1, 1, 1, 1, 1, 1, 1, 1, 1, 1, 1, 1, 1, 1, 1, 1, 1, 1, 1, 1, 1, 1, 1, 1, 1, 1, 1, 1, 1, 1, 1, 1, 1, 1, 1, 1, 1, 1, 1, 1, 1, 1, 1, 1, 1, 1, 1, 1, 1, 1, 1, 1, 1, 1, 1, 1, 1, 1, 1, 1, 1, 1, 1, 1, 1, 1, 1, 1, 1, 1, 1, 1, 1, 1, 1, 1, 1, 1, 1, 1, 1, 1, 1, 1, 1, 1, 1, 1, 1, 1, 1, 1, 1, 1, 1, 1, 1, 1, 1, 1, 1, 1, 1, 1, 1, 1, 1, 1, 1, 1, 1, 1, 1, 1, 1, 1, 1, 1, 1, 1, 1, 1, 1, 1, 1, 1, 1, 1, 1, 1, 1, 1, 1, 1, 1, 1, 1, 1, 1, 1, 1, 1, 1, 1, 1, 1, 1, 1, 1, 1, 1, 1, 1, 1, 1, 1, 1, 1, 1, 1, 1, 1, 1, 1, 1, 1, 1, 1, 1, 1, 1, 1, 1, 1, 1, 1, 1, 1, 1, 1, 1, 1, 1, 1, 1, 1, 1, 1, 1, 1, 1, 1, 1, 1, 1, 1, 1, 1, 1, 1, 1, 1, 1, 1, 1, 1, 1, 1, 1, 1, 1, 1, 1, 1, 1, 1, 1, 1, 1, 1, 1, 1, 1, 1, 1, 1, 1, 1, 1, 1, 1, 1, 1, 1, 1, 1, 1, 1, 1, 1, 1, 1, 1, 1, 1, 1, 1, 1, 1, 1, 1, 1, 1, 1, 1, 1, 1, 1, 1, 1, 1, 1, 1, 1, 1, 1, 1, 1, 1, 1, 1, 1, 1, 1, 1, 1, 1, 1, 1, 1, 1, 1, 1, 1, 1, 1, 1, 1, 1, 1, 1, 1, 1, 1, 1, 1, 1, 1, 1, 1, 1, 1, 1, 1, 1, 1, 1, 1, 1, 1, 1, 1, 1, 1, 1, 1, 1, 1, 1, 1, 1, 1, 1, 1, 1, 1, 1, 1, 1, 1, 1, 1, 1, 1, 1, 1, 1, 1, 1, 1, 1, 1, 1, 1, 1, 1, 1, 1, 1, 1, 1, 1, 1, 1, 1, 1, 1, 1, 1, 1, 1, 1, 1, 1, 1, 1, 1, 1, 1, 1, 1, 1, 1, 1, 1, 1, 1, 1, 1, 1, 1, 1, 1, 1, 1, 1, 1, 1, 1, 1, 1, 1, 1, 1, 1, 1, 1, 1, 1, 1, 1, 1, 1, 1, 1, 1, 1, 1, 1, 1, 1, 1, 1, 1, 1, 1, 1, 1, 1, 1, 1, 1, 1, 1, 1, 1, 1, 1, 1, 1, 1, 1, 1, 1, 1, 1, 1, 1, 1, 1, 1, 1, 1, 1, 1, 1, 1, 1, 1, 1, 1, 1, 1, 1, 1, 1, 1, 1, 1, 1, 1, 1, 1, 1, 1, 1, 1, 1, 1, 1, 1, 1, 1, 1, 1, 1, 1, 1, 1, 1, 1, 1, 1, 1, 1, 1, 1, 1, 1, 1, 1, 1, 1, 1, 1, 1, 1, 1, 1, 1, 1, 1, 1, 1, 1, 1, 1, 1, 1, 1, 1, 1, 1, 1, 1, 1, 1, 1, 1, 1, 1, 1, 1, 1, 1, 1, 1, 1, 1, 1, 1, 1, 1, 1, 1, 1, 1, 1, 1, 1, 1, 1, 1, 1, 1, 1, 1, 1, 1, 1, 1, 1, 1, 1, 1, 1, 1, 1, 1, 1, 1, 1, 1, 1, 1, 1, 1, 1, 1, 1, 1, 1, 1, 1, 1, 1, 1, 1, 1, 1, 1, 1, 1, 1, 1, 1, 1, 1, 1, 1, 1, 1, 1, 1, 1, 1, 1, 1, 1, 1, 1, 1, 1, 1, 1, 1, 1, 1, 1, 1, 1, 1, 1, 1, 1, 1];
start = 167;
end= 10;
tasks = 3;
task = array2d(1..tasks, 1..nodes, [0, 0, 0, 1, 0, 0, 0, 0, 0, 0, 0, 0, 0, 1, 0, 0, 0, 0, 0, 0, 0, 0, 0, 0, 0, 0, 0, 0, 0, 0, 0, 0, 0, 0, 0, 0, 0, 0, 0, 0, 0, 0, 0, 0, 0, 0, 0, 0, 0, 0, 0, 0, 0, 0, 0, 0, 0, 0, 0, 0, 0, 0, 0, 0, 0, 0, 0, 0, 0, 0, 0, 0, 0, 0, 0, 0, 0, 0, 0, 0, 0, 0, 0, 0, 0, 0, 0, 0, 0, 0, 0, 0, 0, 0, 0, 0, 0, 0, 0, 0, 0, 0, 0, 0, 0, 0, 0, 0, 0, 0, 0, 0, 0, 0, 0, 0, 0, 0, 0, 0, 0, 0, 0, 0, 0, 0, 0, 0, 0, 0, 0, 0, 0, 0, 0, 0, 0, 0, 0, 0, 0, 0, 0, 0, 0, 0, 1, 0, 0, 0, 0, 0, 0, 0, 0, 0, 0, 0, 0, 0, 0, 0, 0, 0, 0, 0, 0, 0, 0, 0, 0, 0, 0, 0, 0, 0, 0, 0, 0, 0, 0, 0, 0, 0, 0, 0, 0, 0, 0, 0, 0, 0, 0, 0, 0, 0, 0, 0, 0, 0, 0, 0, 0, 0, 0, 0, 0, 0, 0, 0, 0, 0, 0, 0, 0, 0, 0, 0, 0, 0, 0, 0, 0, 0, 0, 1, 0, 0, 0, 0, 0, 0, 0, 0, 0, 0, 0, 0, 0, 0, 0, 0, 0, 0, 0, 0, 0, 0, 0, 0, 0, 0, 0, 0, 0, 0, 0, 0, 0, 0, 0, 0, 0, 0, 0, 0, 0, 0, 0, 0, 0, 0, 0, 0, 0, 0, 0, 0, 0, 0, 1, 0, 0, 0, 0, 0, 0, 0, 0, 0, 0, 0, 0, 0, 0, 0, 0, 0, 0, 0, 0, 0, 0, 0, 0, 0, 0, 0, 0, 0, 0, 0, 0, 0, 0, 0, 0, 0, 0, 0, 0, 0, 0, 0, 0, 0, 0, 1, 0, 0, 0, 0, 0, 0, 0, 0, 0, 0, 0, 0, 0, 0, 0, 0, 0, 1, 0, 0, 0, 0, 0, 0, 0, 0, 0, 0, 0, 0, 0, 0, 0, 0, 0, 0, 1, 0, 0, 0, 0, 0, 0, 0, 0, 0, 0, 0, 0, 0, 0, 0, 0, 0, 0, 0, 0, 0, 0, 0, 0, 0, 0, 0, 0, 0, 0, 0, 0, 0, 0, 0, 0, 0, 0, 0, 0, 0, 0, 0, 0, 0, 0, 0, 0, 0, 0, 0, 0, 0, 0, 0, 0, 0, 0, 0, 0, 0, 0, 0, 0, 0, 0, 0, 0, 0, 0, 0, 0, 0, 0, 0, 0, 0, 0, 0, 0, 0, 0, 0, 0, 0, 0, 0, 0, 0, 0, 0, 0, 0, 0, 0, 0, 0, 0, 0, 0, 0, 0, 0, 0, 0, 0, 0, 0, 0, 0, 0, 0, 0, 0, 0, 0, 0, 0, 0, 0, 0, 0, 0, 1, 0, 0, 0, 0, 0, 0, 0, 0, 0, 0, 0, 0, 0, 0, 0, 0, 0, 0, 0, 0, 0, 0, 0, 0, 0, 0, 0, 0, 0, 0, 0, 0, 0, 0, 0, 0, 0, 0, 0, 0, 0, 0, 0, 0, 0, 0, 0, 0, 0, 0, 0, 0, 0, 0, 1, 0, 0, 0, 0, 0, 0, 0, 0, 0, 0, 0, 0, 0, 0, 0, 0, 0, 0, 0, 0, 0, 0, 0, 0, 0, 0, 0, 0, 0, 0, 0, 0, 0, 0, 0, 0, 0, 0, 0, 0, 0, 0, 0, 0, 0, 0, 0, 0, 0, 0, 0, 0, 0, 0, 0, 0, 0, 0, 0, 0, 0, 0, 0, 0, 0, 0, 0, 0, 0, 0, 0, 0, 0, 0, 0, 0, 0, 0, 0, 0, 0, 0, 0, 0, 0, 0, 0, 0, 0, 0, 0, 0, 0, 0, 0, 0, 0, 0, 0, 0, 0, 0, 0, 0, 0, 1, 0, 0, 0, 0, 0, 0, 0, 0, 0, 0, 0, 0, 0, 0, 0, 0, 0, 0, 1, 0, 0, 0, 0, 0, 0, 0, 0, 0, 0, 0, 0, 0, 0, 0, 0, 0, 0, 0, 0, 0, 0, 0, 0, 0, 0, 0, 0, 0, 0, 0, 0, 0, 0, 0, 0, 0, 0, 0, 0, 0, 0, 0, 0, 0, 0, 0, 0, 0, 0, 0, 0, 0, 0, 0, 0, 0, 0, 0, 0, 0, 0, 1, 0, 0, 0, 0, 0, 0, 0, 0, 0, 0, 0, 0, 0, 0, 0, 0, 0, 0, 0, 0, 0, 0, 0, 1, 0, 0, 0, 0, 0, 0, 0, 0, 0, 0, 0, 0, 0, 0, 0, 0, 0, 0, 0, 0, 0, 0, 0, 0, 0, 0, 0, 0, 0, 0, 0, 0, 0, 0, 0, 0, 0, 0, 0, 0, 0, 0, 0, 0, 0, 0, 0, 0, 0, 0, 0, 0, 0, 0, 0, 0, 0, 0, 0, 0, 0, 0, 0, 0, 0, 0, 0, 0, 0, 0, 0, 0, 0, 0, 0, 0, 0, 0, 0, 0, 0, 0, 0, 0, 0, 0, 0, 0, 0, 0, 0, 0, 0, 0, 0, 0, 0, 0, 0, 0, 0, 0, 0, 0, 0, 0, 0, 0, 0, 0, 0, 0, 0, 0, 0, 0, 0, 0, 0, 0, 0, 0, 0, 0, 0, 0, 0, 0, 0, 0, 0, 0, 0, 0, 0, 0, 0, 0, 0, 0, 0, 0, 0, 0, 0, 0, 0, 0, 0, 0, 0, 0, 0, 1, 0, 0, 0, 0, 0]);
